5 5
6 2 2 3 4 9 5 2 10 1 3 5 13 3 4 4 9 1 4 4 1 4 12 2 5 10 2 4 3 4 5 2 4 3 19
5 5 1 7 2 18 5 15 3 13 4 17 4 2 4 4 19 3 8 5 16 5 5 3 2 19 3 9 1 18 4 4 1 4 3 1 4 5
7 5 3 13 1 10 2 7 4 20 5 14 3 2 11 5 14 3 12 2 5 5 4 13 1 1 4 1 5 10 2 4 12 1 2 1 4 2
4 5 4 2 2 3 5 3 1 10 3 9 3 4 11 5 5 3 5 3 3 9 4 2 1 9 4 2 14 3 3 4 12 5 11
8 3 1 16 2 4 4 10 5 4 14 1 3 5 16 3 17 2 2 2 1 9 5 6 1 3 19 3 4 8 1 3 5 19 3 1 9 4 3 2 20 2 3 5 1 9 1 4 6